set A := 1 2 3;

set B := 2 3 4 5;

set Hsub :=
1 2
1 3
3 3;

set L := 1 3;

set M := 1 3;

set S[2] := 1 3;
set S[5] := 2 3;

set T[2] := 1 3;
set T[5] := 2 3;

set T_indexed_validate[2] := 1;
set T_indexed_validate[3] := 1 2;
set T_indexed_validate[4] := 1 2 3;

set X[2] := 1;
set X[5] := 2 3;
